
Gurobi 9.5.0 (linux64) logging started Fri Nov 24 17:11:32 2023

Set parameter LogFile to value "/lustre1/scratch/348/vsc34888/JointResearch/05.Models/06.Benchmarking/E.Representative_days_based_on_Line_Benefits_OptModel/RTS24_mod1_ByStages_nc10/openStarNet_RTS24_mod1_ByStages_nc10.log"
Set parameter Method to value 2
Set parameter MIPFocus to value 1
Set parameter Presolve to value 2
Set parameter RINS to value 100
Set parameter MIPGap to value 0.01
Set parameter Threads to value 36
Set parameter TimeLimit to value 259200
Set parameter IterationLimit to value 760000000
Gurobi Optimizer version 9.5.0 build v9.5.0rc5 (linux64)
Thread count: 36 physical cores, 36 logical processors, using up to 36 threads
Optimize a model with 3908 rows, 2662 columns and 10657 nonzeros
Model fingerprint: 0x65894ca8
Variable types: 2641 continuous, 21 integer (21 binary)
Coefficient statistics:
  Matrix range     [1e-03, 2e+03]
  Objective range  [1e+00, 1e+00]
  Bounds range     [6e-05, 2e+00]
  RHS range        [6e-05, 2e+00]
Presolve removed 2327 rows and 1342 columns
Presolve time: 0.03s
Presolved: 1581 rows, 1320 columns, 5707 nonzeros
Variable types: 1299 continuous, 21 integer (21 binary)
Found heuristic solution: objective 102.1705263
Root relaxation presolve removed 3 rows and 3 columns
Root relaxation presolved: 1578 rows, 1317 columns, 5701 nonzeros

Root barrier log...

Ordering time: 0.02s

Barrier statistics:
 AA' NZ     : 2.815e+04
 Factor NZ  : 1.411e+05 (roughly 2 MB of memory)
 Factor Ops : 1.971e+07 (less than 1 second per iteration)
 Threads    : 36

                  Objective                Residual
Iter       Primal          Dual         Primal    Dual     Compl     Time
   0   5.79279127e+05 -3.81991387e+07  4.88e+00 1.21e+03  2.80e+04     0s
   1   4.66304034e+04 -9.37242081e+06  4.06e-01 6.88e-11  3.32e+03     0s
   2   2.00606043e+04 -7.10954309e+06  1.56e-01 2.27e-11  2.17e+03     0s
   3   6.60987835e+03 -8.44552209e+05  1.31e-02 3.74e-11  2.35e+02     0s
   4   3.89398279e+03 -3.50044055e+04  1.61e-13 3.29e-10  1.05e+01     0s
   5   6.45381057e+02 -4.99667316e+03  2.58e-13 3.79e-11  1.52e+00     0s
   6   3.77474596e+02 -1.61515085e+03  7.06e-14 1.15e-11  5.36e-01     0s
   7   3.04645330e+02 -8.83611160e+02  6.86e-14 6.48e-12  3.20e-01     0s
   8   1.15146114e+02 -1.72580211e+02  1.23e-13 7.28e-12  7.74e-02     0s
   9   8.01753629e+01  4.08177928e+00  3.84e-13 3.64e-12  2.05e-02     0s
  10   6.81603816e+01  4.66798505e+01  3.78e-13 3.64e-12  5.78e-03     0s
  11   6.51443706e+01  5.58655461e+01  7.93e-13 3.64e-12  2.50e-03     0s
  12   6.29887007e+01  5.81222804e+01  9.51e-13 3.64e-12  1.31e-03     0s
  13   6.19981641e+01  6.00153237e+01  2.80e-12 7.28e-12  5.33e-04     0s
  14   6.11958808e+01  6.06896947e+01  1.19e-12 1.82e-12  1.36e-04     0s
  15   6.10504801e+01  6.08480841e+01  1.88e-12 1.82e-12  5.45e-05     0s
  16   6.09694929e+01  6.08980245e+01  2.56e-11 3.64e-12  1.92e-05     0s
  17   6.09483777e+01  6.09352272e+01  1.27e-11 3.64e-12  3.54e-06     0s
  18   6.09446196e+01  6.09412610e+01  1.08e-11 3.64e-12  9.04e-07     0s
  19   6.09441298e+01  6.09431307e+01  7.39e-12 3.64e-12  2.69e-07     0s
  20   6.09439970e+01  6.09439016e+01  9.67e-12 7.28e-12  2.57e-08     0s
  21   6.09439805e+01  6.09439735e+01  5.42e-11 3.64e-12  1.89e-09     0s
  22   6.09439763e+01  6.09439763e+01  5.94e-11 7.28e-12  4.60e-12     0s

Barrier solved model in 22 iterations and 0.32 seconds (0.06 work units)
Optimal objective 6.09439763e+01


Root relaxation: objective 6.094398e+01, 191 iterations, 0.24 seconds (0.04 work units)

    Nodes    |    Current Node    |     Objective Bounds      |     Work
 Expl Unexpl |  Obj  Depth IntInf | Incumbent    BestBd   Gap | It/Node Time

     0     0   60.94398    0   11  102.17053   60.94398  40.4%     -    0s
H    0     0                      91.0376455   61.19056  32.8%     -    0s
     0     0   61.19056    0   13   91.03765   61.19056  32.8%     -    0s
     0     0   61.24095    0   13   91.03765   61.24095  32.7%     -    0s
H    0     0                      86.8651820   61.24095  29.5%     -    0s
H    0     0                      84.0438343   61.58311  26.7%     -    0s
     0     0   61.58434    0   11   84.04383   61.58434  26.7%     -    0s
     0     0   61.58434    0   11   84.04383   61.58434  26.7%     -    0s
H    0     0                      80.1800900   61.58434  23.2%     -    0s
H    0     0                      79.8125576   61.58434  22.8%     -    0s
     0     0   61.59070    0   10   79.81256   61.59070  22.8%     -    0s
     0     0   62.10517    0   10   79.81256   62.10517  22.2%     -    0s
     0     0   63.11357    0   10   79.81256   63.11357  20.9%     -    0s
     0     0   63.11357    0    8   79.81256   63.11357  20.9%     -    0s
     0     0   63.52466    0    8   79.81256   63.52466  20.4%     -    0s
H    0     0                      72.7533891   63.52466  12.7%     -    0s
     0     2   63.52466    0    8   72.75339   63.52466  12.7%     -    0s

Cutting planes:
  Gomory: 1
  Implied bound: 2
  MIR: 32
  Relax-and-lift: 1

Explored 933 nodes (23193 simplex iterations) in 1.86 seconds (1.67 work units)
Thread count was 36 (of 36 available processors)

Solution count 7: 72.7534 79.8126 80.1801 ... 102.171

Optimal solution found (tolerance 1.00e-02)
Best objective 7.275338911708e+01, best bound 7.228971204078e+01, gap 0.6373%

Gurobi 9.5.0 (linux64) logging started Fri Nov 24 17:11:34 2023

Set parameter LogFile to value "/lustre1/scratch/348/vsc34888/JointResearch/05.Models/06.Benchmarking/E.Representative_days_based_on_Line_Benefits_OptModel/RTS24_mod1_ByStages_nc10/openStarNet_RTS24_mod1_ByStages_nc10.log"
Set parameter Method to value 2
Set parameter MIPFocus to value 1
Set parameter Presolve to value 2
Set parameter RINS to value 100
Set parameter MIPGap to value 0.01
Set parameter Threads to value 36
Set parameter TimeLimit to value 259200
Set parameter IterationLimit to value 760000000
No parameters matching 'relax_integrality' found
Gurobi Optimizer version 9.5.0 build v9.5.0rc5 (linux64)
Thread count: 36 physical cores, 36 logical processors, using up to 36 threads
Optimize a model with 3908 rows, 2641 columns and 9712 nonzeros
Model fingerprint: 0x49691ad9
Coefficient statistics:
  Matrix range     [1e-03, 2e+03]
  Objective range  [1e+00, 1e+00]
  Bounds range     [6e-05, 2e+00]
  RHS range        [6e-05, 2e+01]
Presolve removed 3202 rows and 1420 columns
Presolve time: 0.00s
Presolved: 706 rows, 1232 columns, 2998 nonzeros

Ordering time: 0.00s

Barrier statistics:
 AA' NZ     : 1.631e+03
 Factor NZ  : 5.841e+03 (roughly 1 MB of memory)
 Factor Ops : 7.526e+04 (less than 1 second per iteration)
 Threads    : 1

                  Objective                Residual
Iter       Primal          Dual         Primal    Dual     Compl     Time
   0   6.29435461e+05 -2.40747352e+07  4.40e+00 4.79e+03  5.71e+04     0s
   1   6.52845686e+04 -1.14440699e+07  3.64e-01 6.09e-11  8.19e+03     0s
   2   3.37659369e+04 -2.10484131e+06  1.04e-01 4.04e-11  1.30e+03     0s
   3   1.73017162e+04 -1.59899158e+05  5.59e-04 5.28e-11  8.68e+01     0s
   4   4.34563060e+03 -1.30870329e+04  1.74e-12 2.91e-11  8.51e+00     0s
   5   5.10378411e+02 -1.64641652e+03  3.09e-13 1.46e-11  1.05e+00     0s
   6   2.95168786e+02 -6.60797143e+02  2.31e-13 1.46e-11  4.67e-01     0s
   7   1.27156987e+02 -1.64867317e+02  1.41e-13 1.82e-12  1.43e-01     0s
   8   8.07831056e+01  4.36069281e+01  6.32e-13 3.64e-12  1.82e-02     0s
   9   7.33616759e+01  6.79639932e+01  1.14e-12 1.46e-11  2.64e-03     0s
  10   7.29951975e+01  7.11803512e+01  1.07e-12 1.46e-11  8.86e-04     0s
  11   7.28090835e+01  7.22083176e+01  3.10e-12 7.28e-12  2.93e-04     0s
  12   7.27773554e+01  7.26496179e+01  1.57e-12 7.28e-12  6.24e-05     0s
  13   7.27558622e+01  7.27421029e+01  5.79e-13 7.28e-12  6.72e-06     0s
  14   7.27534928e+01  7.27526175e+01  1.63e-12 1.46e-11  4.27e-07     0s
  15   7.27533971e+01  7.27533725e+01  1.10e-12 7.28e-12  1.20e-08     0s
  16   7.27533891e+01  7.27533891e+01  3.78e-13 7.28e-12  2.68e-14     0s

Barrier solved model in 16 iterations and 0.02 seconds (0.01 work units)
Optimal objective 7.27533891e+01

Crossover log...

     135 DPushes remaining with DInf 0.0000000e+00                 0s

      36 PPushes remaining with PInf 0.0000000e+00                 0s
       0 PPushes remaining with PInf 0.0000000e+00                 0s

  Push phase complete: Pinf 0.0000000e+00, Dinf 5.8583588e-13      0s

Iteration    Objective       Primal Inf.    Dual Inf.      Time
      39    7.2753389e+01   0.000000e+00   0.000000e+00      0s

Use crossover to convert LP symmetric solution to basic solution...
Crossover log...

      22 PPushes remaining with PInf 0.0000000e+00                 0s
       0 PPushes remaining with PInf 0.0000000e+00                 0s

  Push phase complete: Pinf 0.0000000e+00, Dinf 6.5536832e-13      0s

Iteration    Objective       Primal Inf.    Dual Inf.      Time
      64    7.2753389e+01   0.000000e+00   0.000000e+00      0s

Solved in 64 iterations and 0.02 seconds (0.01 work units)
Optimal objective  7.275338912e+01

Gurobi 9.5.0 (linux64) logging started Fri Dec  8 15:18:35 2023

Set parameter LogFile to value "/lustre1/scratch/348/vsc34888/JointResearch/05.Models/06.Benchmarking/E.Representative_days_based_on_Line_Benefits_OptModel/RTS24_mod1_ByStages_nc10/openStarNet_RTS24_mod1_ByStages_nc10.log"
Set parameter Method to value 2
Set parameter MIPFocus to value 1
Set parameter Presolve to value 2
Set parameter RINS to value 100
Set parameter MIPGap to value 0.01
Set parameter Threads to value 36
Set parameter TimeLimit to value 259200
Set parameter IterationLimit to value 760000000
Gurobi Optimizer version 9.5.0 build v9.5.0rc5 (linux64)
Thread count: 36 physical cores, 36 logical processors, using up to 36 threads
Optimize a model with 3908 rows, 2653 columns and 10628 nonzeros
Model fingerprint: 0x065fd3aa
Variable types: 2632 continuous, 21 integer (21 binary)
Coefficient statistics:
  Matrix range     [7e-03, 2e+03]
  Objective range  [1e+00, 1e+00]
  Bounds range     [4e-05, 3e+00]
  RHS range        [4e-05, 3e+00]
Presolve removed 2329 rows and 1336 columns
Presolve time: 0.03s
Presolved: 1579 rows, 1317 columns, 5702 nonzeros
Variable types: 1296 continuous, 21 integer (21 binary)
Found heuristic solution: objective 68.3586674
Root relaxation presolve removed 2 rows and 2 columns
Root relaxation presolved: 1577 rows, 1315 columns, 5698 nonzeros

Root barrier log...

Ordering time: 0.02s

Barrier statistics:
 AA' NZ     : 2.815e+04
 Factor NZ  : 1.491e+05 (roughly 2 MB of memory)
 Factor Ops : 2.174e+07 (less than 1 second per iteration)
 Threads    : 36

                  Objective                Residual
Iter       Primal          Dual         Primal    Dual     Compl     Time
   0   8.88350919e+05 -3.76716445e+07  7.17e+00 1.21e+03  3.54e+04     0s
   1   1.23413776e+05 -1.19492143e+07  1.03e+00 5.96e-11  5.49e+03     0s
   2   2.96168802e+04 -8.36812592e+06  2.51e-01 3.73e-10  2.70e+03     0s
   3   6.65811897e+03 -8.66283487e+05  1.75e-02 6.40e-11  2.45e+02     0s
   4   4.02899148e+03 -2.79220391e+04  1.82e-13 1.46e-11  8.61e+00     0s
   5   8.27917472e+02 -3.82563707e+03  4.74e-13 7.96e-12  1.25e+00     0s
   6   4.85429329e+02 -1.16653369e+03  2.25e-13 7.28e-12  4.45e-01     0s
   7   2.28961805e+02 -3.17169629e+02  1.35e-13 3.64e-12  1.47e-01     0s
   8   1.05179459e+02 -6.65770235e+01  9.70e-14 3.64e-12  4.63e-02     0s
   9   6.82477277e+01 -2.85994882e+00  6.79e-14 3.64e-12  1.92e-02     0s
  10   4.97255235e+01  2.21065725e+01  2.50e-13 1.82e-12  7.44e-03     0s
  11   4.31427272e+01  2.95842044e+01  1.27e-13 3.64e-12  3.65e-03     0s
  12   4.13176649e+01  3.26975261e+01  1.90e-13 3.64e-12  2.32e-03     0s
  13   3.60293892e+01  3.44271312e+01  2.34e-12 3.64e-12  4.32e-04     0s
  14   3.55683128e+01  3.51046191e+01  6.98e-12 7.28e-12  1.25e-04     0s
  15   3.52426462e+01  3.51835529e+01  2.67e-11 7.28e-12  1.59e-05     0s
  16   3.52029105e+01  3.52020519e+01  7.88e-11 1.82e-12  2.31e-07     0s
  17   3.52024932e+01  3.52024932e+01  2.45e-11 3.64e-12  1.71e-12     0s

Barrier solved model in 17 iterations and 0.30 seconds (0.06 work units)
Optimal objective 3.52024932e+01


Root relaxation: objective 3.520249e+01, 215 iterations, 0.21 seconds (0.03 work units)

    Nodes    |    Current Node    |     Objective Bounds      |     Work
 Expl Unexpl |  Obj  Depth IntInf | Incumbent    BestBd   Gap | It/Node Time

     0     0   35.20249    0    9   68.35867   35.20249  48.5%     -    0s
H    0     0                      60.8138657   35.73909  41.2%     -    0s
     0     0   35.74153    0    9   60.81387   35.74153  41.2%     -    0s
H    0     0                      58.4902194   35.74153  38.9%     -    0s
     0     0   36.39950    0   10   58.49022   36.39950  37.8%     -    0s
H    0     0                      55.1567670   36.39950  34.0%     -    0s
     0     0   36.72756    0    8   55.15677   36.72756  33.4%     -    0s
H    0     0                      53.9910151   36.72756  32.0%     -    0s
     0     0   36.94715    0    8   53.99102   36.94715  31.6%     -    0s
H    0     0                      52.2830579   38.18002  27.0%     -    0s
     0     0   38.18002    0    8   52.28306   38.18002  27.0%     -    0s
H    0     0                      49.8038965   38.66557  22.4%     -    0s
     0     0   38.66557    0   10   49.80390   38.66557  22.4%     -    0s
H    0     0                      49.7684372   39.34833  20.9%     -    0s
     0     0   39.34833    0   10   49.76844   39.34833  20.9%     -    0s
     0     0   39.59457    0   10   49.76844   39.59457  20.4%     -    0s
     0     0   39.70723    0   10   49.76844   39.70723  20.2%     -    0s
     0     0   39.77707    0   10   49.76844   39.77707  20.1%     -    0s
     0     0   40.55237    0    9   49.76844   40.55237  18.5%     -    0s
H    0     0                      48.2437082   40.55237  15.9%     -    0s
     0     2   40.55237    0    9   48.24371   40.55237  15.9%     -    0s
H   70    60                      47.9819758   40.55237  15.5%  50.3    0s
H  119    71                      47.9819755   40.55237  15.5%  43.4    1s

Cutting planes:
  Gomory: 2
  Implied bound: 2
  MIR: 36
  Relax-and-lift: 8

Explored 1111 nodes (25156 simplex iterations) in 3.12 seconds (2.49 work units)
Thread count was 36 (of 36 available processors)

Solution count 10: 47.982 48.2437 49.7684 ... 68.3587

Optimal solution found (tolerance 1.00e-02)
Best objective 4.798197551904e+01, best bound 4.771648923829e+01, gap 0.5533%

Gurobi 9.5.0 (linux64) logging started Fri Dec  8 15:18:39 2023

Set parameter LogFile to value "/lustre1/scratch/348/vsc34888/JointResearch/05.Models/06.Benchmarking/E.Representative_days_based_on_Line_Benefits_OptModel/RTS24_mod1_ByStages_nc10/openStarNet_RTS24_mod1_ByStages_nc10.log"
Set parameter Method to value 2
Set parameter MIPFocus to value 1
Set parameter Presolve to value 2
Set parameter RINS to value 100
Set parameter MIPGap to value 0.01
Set parameter Threads to value 36
Set parameter TimeLimit to value 259200
Set parameter IterationLimit to value 760000000
No parameters matching 'relax_integrality' found
Gurobi Optimizer version 9.5.0 build v9.5.0rc5 (linux64)
Thread count: 36 physical cores, 36 logical processors, using up to 36 threads
Optimize a model with 3908 rows, 2632 columns and 9683 nonzeros
Model fingerprint: 0xc76202e6
Coefficient statistics:
  Matrix range     [7e-03, 2e+03]
  Objective range  [1e+00, 1e+00]
  Bounds range     [4e-05, 3e+00]
  RHS range        [4e-05, 2e+01]
Presolve removed 3204 rows and 1414 columns
Presolve time: 0.01s
Presolved: 704 rows, 1229 columns, 3077 nonzeros

Ordering time: 0.00s

Barrier statistics:
 AA' NZ     : 1.559e+03
 Factor NZ  : 5.742e+03 (roughly 1 MB of memory)
 Factor Ops : 7.741e+04 (less than 1 second per iteration)
 Threads    : 1

                  Objective                Residual
Iter       Primal          Dual         Primal    Dual     Compl     Time
   0   8.90608740e+05 -4.89213087e+07  4.47e+00 4.96e+03  1.11e+05     0s
   1   6.90708953e+04 -2.10415591e+07  3.01e-01 1.46e-10  1.48e+04     0s
   2   3.77643991e+04 -5.72012856e+06  1.14e-01 1.03e-10  3.57e+03     0s
   3   2.13375026e+04 -5.65019825e+05  5.43e-03 1.16e-10  3.04e+02     0s
   4   1.06482276e+04 -3.94845153e+04  7.25e-12 8.73e-11  2.53e+01     0s
   5   1.38216056e+03 -3.09653738e+03  2.19e-12 2.91e-11  2.26e+00     0s
   6   2.77774707e+02 -7.99955675e+02  1.35e-12 2.91e-11  5.44e-01     0s
   7   1.30631797e+02 -1.16961572e+02  3.18e-13 1.82e-12  1.25e-01     0s
   8   5.99070628e+01  1.64477453e+01  6.66e-13 1.46e-11  2.19e-02     0s
   9   5.00457238e+01  4.32947867e+01  1.12e-12 2.91e-11  3.41e-03     0s
  10   4.83881725e+01  4.65443975e+01  2.85e-11 3.64e-12  9.30e-04     0s
  11   4.80332755e+01  4.76695098e+01  3.12e-12 1.46e-11  1.84e-04     0s
  12   4.79947962e+01  4.79647054e+01  1.42e-12 2.91e-11  1.52e-05     0s
  13   4.79844862e+01  4.79803633e+01  1.59e-10 3.64e-12  2.08e-06     0s
  14   4.79820007e+01  4.79819113e+01  2.63e-09 3.64e-12  4.51e-08     0s
  15   4.79819758e+01  4.79819758e+01  1.21e-10 2.91e-11  4.51e-11     0s
  16   4.79819758e+01  4.79819758e+01  3.39e-10 3.64e-12  8.97e-17     0s

Barrier solved model in 16 iterations and 0.02 seconds (0.01 work units)
Optimal objective 4.79819758e+01

Crossover log...

     141 DPushes remaining with DInf 0.0000000e+00                 0s
       0 DPushes remaining with DInf 0.0000000e+00                 0s

      42 PPushes remaining with PInf 0.0000000e+00                 0s
       0 PPushes remaining with PInf 0.0000000e+00                 0s

  Push phase complete: Pinf 0.0000000e+00, Dinf 6.0985296e-13      0s

Iteration    Objective       Primal Inf.    Dual Inf.      Time
      47    4.7981976e+01   0.000000e+00   0.000000e+00      0s

Use crossover to convert LP symmetric solution to basic solution...
Crossover log...

      32 PPushes remaining with PInf 0.0000000e+00                 0s
       0 PPushes remaining with PInf 0.0000000e+00                 0s

  Push phase complete: Pinf 0.0000000e+00, Dinf 6.5079090e-13      0s

Iteration    Objective       Primal Inf.    Dual Inf.      Time
      82    4.7981976e+01   0.000000e+00   0.000000e+00      0s

Solved in 82 iterations and 0.02 seconds (0.01 work units)
Optimal objective  4.798197582e+01
